xclingo version 2.0b16
Reading from /bin/text2ALM/Master/LogicPrograms/countingC/countingCNarrative4.tp.lp /bin/text2ALM/Master/Queries/query4.lp trace-rule.lp
Answer: 1
##Explanation: 1.1
  *
  |__"daniel is holding 0 items at time point 8"

##Total Explanations:	1
Answer: 2
##Explanation: 2.1
  *
  |__"daniel is holding 0 items at time point 8"

##Total Explanations:	1
Models:	2
